NAME : traveling-santa-2018-prime-paths.29633.tour
COMMENT : Length = 29633
COMMENT : Found by LKH [Keld Helsgaun] Sun Jun 12 19:59:47 2022
TYPE : TOUR
DIMENSION : 100
TOUR_SECTION
1
19
56
50
25
42
60
10
24
8
12
36
38
70
96
100
58
28
15
77
5
18
95
53
79
75
17
67
73
85
63
78
80
55
71
6
86
4
26
83
98
99
41
14
68
3
13
84
54
20
39
7
48
30
93
2
27
11
51
37
40
72
64
59
90
47
44
34
91
82
32
43
66
87
97
46
61
88
89
94
62
76
35
31
21
65
16
9
57
22
92
74
45
33
69
29
23
49
81
52
-1
EOF
